************************************************************************
file with basedata            : cn151_.bas
initial value random generator: 1312135852
************************************************************************
projects                      :  1
jobs (incl. supersource/sink ):  18
horizon                       :  129
RESOURCES
  - renewable                 :  2   R
  - nonrenewable              :  1   N
  - doubly constrained        :  0   D
************************************************************************
PROJECT INFORMATION:
pronr.  #jobs rel.date duedate tardcost  MPM-Time
    1     16      0       21        3       21
************************************************************************
PRECEDENCE RELATIONS:
jobnr.    #modes  #successors   successors
   1        1          3           2   3   4
   2        3          3           5   8  11
   3        3          3           8  11  12
   4        3          2           5  11
   5        3          3           6   7   9
   6        3          1          16
   7        3          1          10
   8        3          2          10  13
   9        3          2          10  13
  10        3          2          14  15
  11        3          2          15  17
  12        3          3          15  16  17
  13        3          1          14
  14        3          2          16  17
  15        3          1          18
  16        3          1          18
  17        3          1          18
  18        1          0        
************************************************************************
REQUESTS/DURATIONS:
jobnr. mode duration  R 1  R 2  N 1
------------------------------------------------------------------------
  1      1     0       0    0    0
  2      1     3       9    0    6
         2     4       7    0    5
         3     7       5    0    3
  3      1     5       0    7    7
         2     8       4    0    7
         3    10       0    5    5
  4      1     2       5    0    9
         2     5       0    8    7
         3     9       4    0    6
  5      1     1       4    0    8
         2     3       3    0    8
         3     8       3    0    7
  6      1     6      10    0    7
         2     8       4    0    6
         3     9       1    0    4
  7      1     1       4    0    6
         2     6       0    6    5
         3     8       0    6    2
  8      1     2       0    6    7
         2     2       7    0    6
         3     5       0    6    5
  9      1     3       6    0    4
         2     5       4    0    4
         3    10       0    6    4
 10      1     7       0    9    5
         2    10       5    0    4
         3    10       6    0    2
 11      1     2       5    0    9
         2     4       0    5    6
         3    10       0    2    2
 12      1     6       0    9    8
         2     6      10    0    8
         3    10       6    0    6
 13      1     2       8    0    7
         2     2       0    3    8
         3     6       0    3    6
 14      1     3       0    6    6
         2     4       0    1    3
         3     9       3    0    3
 15      1     1       0    8    8
         2     4       8    0    8
         3     6       7    0    8
 16      1     1       0    8    4
         2     3       0    5    4
         3     5       0    2    3
 17      1     4       0    7    7
         2     7      10    0    7
         3     7       0    7    5
 18      1     0       0    0    0
************************************************************************
RESOURCEAVAILABILITIES:
  R 1  R 2  N 1
   25   25  100
************************************************************************
